12115
0 0 1 0 0 0 0 1 1 1 1 0 1 1 1 0 0 1 0 0 
17 17 17 17 17 8 8 8 17 8 17 2 2 2 8 2 2 2 2 12 12 12 12 14 12 2 14 2 14 2 2 14 14 14 2 2 2 2 2 10 10 10 10 10 10 10 10 2 2 2 2 2 7 10 10 10 10 10 10 2 10 9 9 10 9 13 13 10 10 13 7 7 7 13 17 13 9 9 9 7 13 13 7 17 13 7 13 13 17 13 17 17 17 7 17 17 17 17 17 17 